qbf_easy_train/easy_3112_SAT.qdimacs
p cnf 41 120
a 32 9 37 0
e 1 2 3 4 5 6 7 8 10 11 12 13 14 15 16 17 18 19 20 21 22 23 24 25 26 27 28 29 30 31 33 34 35 36 38 39 40 41 0
1 2 -3 0
-1 -2 -3 0
1 -2 3 0
-1 2 3 0
5 -3 0
5 -4 0
3 4 -5 0
8 7 0
8 -5 0
-7 5 -8 0
6 -8 -9 0
-6 8 -9 0
6 8 9 0
-6 -8 9 0
-5 -9 -10 0
5 9 -10 0
-5 9 10 0
5 -9 10 0
11 4 0
11 -5 0
-4 5 -11 0
12 13 -14 0
-12 -13 -14 0
12 -13 14 0
-12 13 14 0
-15 2 0
-15 2 0
-2 15 0
16 -4 0
16 2 0
4 -2 -16 0
-17 -4 0
-17 -16 0
4 16 17 0
-6 -17 -18 0
6 17 -18 0
-6 17 18 0
6 -17 18 0
15 -18 -19 0
-15 18 -19 0
15 18 19 0
-15 -18 19 0
-14 -19 -20 0
14 19 -20 0
-14 19 20 0
14 -19 20 0
-21 11 0
-21 20 0
-11 -20 21 0
22 -5 0
22 16 0
5 -16 -22 0
-23 22 0
-23 3 0
-22 -3 23 0
7 -15 -24 0
-7 15 -24 0
7 15 24 0
-7 -15 24 0
25 -7 0
25 7 0
26 24 0
26 25 0
-24 -25 -26 0
-27 -23 0
-27 -26 0
23 26 27 0
-28 -21 0
-28 -27 0
21 27 28 0
29 -10 0
29 28 0
10 -28 -29 0
-30 1 0
-30 15 0
-1 -15 30 0
-31 30 0
-31 -15 0
-30 15 31 0
5 12 -32 0
-5 -12 -32 0
5 -12 32 0
-5 12 32 0
-33 2 0
-33 -12 0
-2 12 33 0
-34 -32 0
-34 -33 0
32 33 34 0
-6 -16 -35 0
6 16 -35 0
-6 16 35 0
6 -16 35 0
-37 36 0
-37 13 0
-36 -13 37 0
38 35 0
38 37 0
-35 -37 -38 0
-39 -34 0
-39 38 0
34 -38 39 0
-40 -31 0
-40 39 0
31 -39 40 0
41 -29 0
41 40 0
29 -40 -41 0
41 -33 -35 -9 11 1 0
-6 10 -9 41 -32 0
36 25 -21 -19 0
-41 18 35 -32 0
9 -15 -12 -4 20 0
-22 41 -19 -12 -30 38 2 13 0
41 -2 38 15 -18 -7 0
23 -27 33 -11 0
15 -30 -2 -39 13 -5 0
-1 -16 -15 19 2 0
-27 -15 2 -8 0
41 0
