sat_easy_train/easy_3112_SAT.dimacs
p cnf 150 506
1 -2 -3 0
-1 2 -3 0
1 2 3 0
-1 -2 3 0
5 1 0
5 1 0
-1 -5 0
-6 4 0
-6 5 0
-4 -5 6 0
7 -8 -9 0
-7 8 -9 0
7 8 9 0
-7 -8 9 0
-11 -9 0
-11 10 0
9 -10 11 0
-11 12 -13 0
11 -12 -13 0
-11 -12 13 0
11 12 13 0
-6 13 -14 0
6 -13 -14 0
-6 -13 14 0
6 13 14 0
-15 3 0
-15 -14 0
-3 14 15 0
-17 -16 0
-17 -11 0
16 11 17 0
1 11 -18 0
-1 -11 -18 0
1 -11 18 0
-1 11 18 0
17 18 -19 0
-17 -18 -19 0
17 -18 19 0
-17 18 19 0
14 -7 -20 0
-14 7 -20 0
14 7 20 0
-14 -7 20 0
21 19 0
21 -20 0
-19 20 -21 0
22 -15 0
22 -21 0
15 21 -22 0
11 -23 -24 0
-11 23 -24 0
11 23 24 0
-11 -23 24 0
25 -5 0
25 -7 0
5 7 -25 0
-25 -5 -26 0
25 5 -26 0
-25 5 26 0
25 -5 26 0
-28 27 0
-28 -11 0
-27 11 28 0
2 -3 -29 0
-2 3 -29 0
2 3 29 0
-2 -3 29 0
-1 -29 -30 0
1 29 -30 0
-1 29 30 0
1 -29 30 0
-31 -28 0
-31 -30 0
28 30 31 0
-32 5 0
-32 -14 0
-5 14 32 0
-31 -32 -33 0
31 32 -33 0
-31 32 33 0
31 -32 33 0
-26 33 -34 0
26 -33 -34 0
-26 -33 34 0
26 33 34 0
35 -19 0
35 19 0
36 -5 0
36 2 0
5 -2 -36 0
-38 -37 0
-38 1 0
37 -1 38 0
39 -36 0
39 -38 0
36 38 -39 0
-40 -35 0
-40 -39 0
35 39 40 0
-41 -34 0
-41 40 0
34 -40 41 0
-42 24 0
-42 -41 0
-24 41 42 0
-22 -42 -43 0
22 42 -43 0
-22 42 43 0
22 -42 43 0
-44 14 0
-44 -5 0
-14 5 44 0
-45 44 0
-45 14 0
-44 -14 45 0
46 -45 0
46 10 0
45 -10 -46 0
19 5 -47 0
-19 -5 -47 0
19 -5 47 0
-19 5 47 0
48 36 0
48 -47 0
-36 47 -48 0
-46 -48 -49 0
46 48 -49 0
-46 48 49 0
46 -48 49 0
1 -4 -50 0
-1 4 -50 0
1 4 50 0
-1 -4 50 0
51 50 0
51 -10 0
-50 10 -51 0
-14 -5 -52 0
14 5 -52 0
-14 5 52 0
14 -5 52 0
-51 -52 -53 0
51 52 -53 0
-51 52 53 0
51 -52 53 0
-55 54 0
-55 -44 0
-54 44 55 0
58 -57 0
58 54 0
57 -54 -58 0
-56 58 -59 0
56 -58 -59 0
-56 -58 59 0
56 58 59 0
15 59 -60 0
-15 -59 -60 0
15 -59 60 0
-15 59 60 0
-61 -55 0
-61 60 0
55 -60 61 0
-53 61 -62 0
53 -61 -62 0
-53 -61 62 0
53 61 62 0
63 -49 0
63 -62 0
49 62 -63 0
-64 59 0
-64 -11 0
-59 11 64 0
65 64 0
65 -39 0
-64 39 -65 0
66 -5 0
66 65 0
5 -65 -66 0
67 21 0
67 66 0
-21 -66 -67 0
-54 10 -68 0
54 -10 -68 0
-54 -10 68 0
54 10 68 0
-67 68 -69 0
67 -68 -69 0
-67 -68 69 0
67 68 69 0
70 63 0
70 -69 0
-63 69 -70 0
71 43 0
71 -70 0
-43 70 -71 0
72 13 0
72 -54 0
-13 54 -72 0
73 72 0
73 27 0
-72 -27 -73 0
74 -44 0
74 -37 0
44 37 -74 0
75 67 0
75 74 0
-67 -74 -75 0
76 36 0
76 -64 0
-36 64 -76 0
77 -75 0
77 76 0
75 -76 -77 0
73 -77 -78 0
-73 77 -78 0
73 77 78 0
-73 -77 78 0
-16 -79 0
16 -79 0
-80 5 0
-80 57 0
-5 -57 80 0
79 -80 -81 0
-79 80 -81 0
79 80 81 0
-79 -80 81 0
82 -39 0
82 -81 0
39 81 -82 0
83 -78 0
83 82 0
78 -82 -83 0
-85 84 0
-85 -4 0
-84 4 85 0
-86 85 0
-86 27 0
-85 -27 86 0
87 14 0
87 -86 0
-14 86 -87 0
79 3 -88 0
-79 -3 -88 0
79 -3 88 0
-79 3 88 0
56 11 -89 0
-56 -11 -89 0
56 -11 89 0
-56 11 89 0
-90 6 0
-90 89 0
-6 -89 90 0
91 88 0
91 -90 0
-88 90 -91 0
92 -87 0
92 91 0
87 -91 -92 0
-93 44 0
-93 -13 0
-44 13 93 0
-94 -93 0
-94 -56 0
93 56 94 0
-95 12 0
-95 -7 0
-12 7 95 0
95 37 -96 0
-95 -37 -96 0
95 -37 96 0
-95 37 96 0
-97 94 0
-97 96 0
-94 -96 97 0
-98 36 0
-98 51 0
-36 -51 98 0
99 97 0
99 -98 0
-97 98 -99 0
100 -92 0
100 99 0
92 -99 -100 0
-101 84 0
-101 -84 0
103 93 0
103 102 0
-93 -102 -103 0
104 101 0
104 103 0
-101 -103 -104 0
-105 94 0
-105 -85 0
-94 85 105 0
106 -104 0
106 -105 0
104 105 -106 0
-16 -79 -107 0
16 79 -107 0
-16 79 107 0
16 -79 107 0
108 38 0
108 -107 0
-38 107 -108 0
108 -9 -109 0
-108 9 -109 0
108 9 109 0
-108 -9 109 0
66 -8 -110 0
-66 8 -110 0
66 8 110 0
-66 -8 110 0
-109 -110 -111 0
109 110 -111 0
-109 110 111 0
109 -110 111 0
112 -106 0
112 111 0
106 -111 -112 0
113 100 0
113 112 0
-100 -112 -113 0
-114 -83 0
-114 -113 0
83 113 114 0
56 44 -115 0
-56 -44 -115 0
56 -44 115 0
-56 44 115 0
116 -114 0
116 -115 0
114 115 -116 0
117 -72 0
117 17 0
72 -17 -117 0
118 18 0
118 81 0
-18 -81 -118 0
117 118 -119 0
-117 -118 -119 0
117 -118 119 0
-117 118 119 0
-116 -119 -120 0
116 119 -120 0
-116 119 120 0
116 -119 120 0
121 27 0
121 -80 0
-27 80 -121 0
122 -121 0
122 15 0
121 -15 -122 0
123 -108 0
123 -27 0
108 27 -123 0
-124 122 0
-124 -123 0
-122 123 124 0
125 89 0
125 124 0
-89 -124 -125 0
-126 15 0
-126 95 0
-15 -95 126 0
-126 -19 -127 0
126 19 -127 0
-126 19 127 0
126 -19 127 0
128 -35 0
128 80 0
35 -80 -128 0
-129 -21 0
-129 128 0
21 -128 129 0
14 130 0
-14 130 0
131 -5 0
131 -10 0
5 10 -131 0
-131 18 -132 0
131 -18 -132 0
-131 -18 132 0
131 18 132 0
-133 1 0
-133 13 0
-1 -13 133 0
-132 133 -134 0
132 -133 -134 0
-132 -133 134 0
132 133 134 0
-135 64 0
-135 134 0
-64 -134 135 0
-136 130 0
-136 -135 0
-130 135 136 0
-137 129 0
-137 -136 0
-129 136 137 0
138 -37 0
138 58 0
37 -58 -138 0
-138 -15 -139 0
138 15 -139 0
-138 15 139 0
138 -15 139 0
-137 -139 -140 0
137 139 -140 0
-137 139 140 0
137 -139 140 0
-141 -127 0
-141 -140 0
127 140 141 0
142 125 0
142 -141 0
-125 141 -142 0
-143 -120 0
-143 142 0
120 -142 143 0
144 68 0
144 -58 0
-68 58 -144 0
-145 -15 0
-145 94 0
15 -94 145 0
146 -144 0
146 -145 0
144 145 -146 0
-147 -122 0
-147 -65 0
122 65 147 0
-148 146 0
-148 147 0
-146 -147 148 0
149 143 0
149 -148 0
-143 148 -149 0
150 -71 0
150 -149 0
71 149 -150 0
-122 -112 17 113 0
150 138 -120 119 -7 0
-32 145 47 -36 -90 0
-59 26 -87 -150 70 0
-40 48 42 116 109 0
78 59 0
126 -28 92 -2 -133 0
-141 68 0
85 -12 63 0
-84 150 0
-21 -80 95 -84 -58 97 0
-114 56 0
104 -1 0
52 -128 -29 44 0
17 -75 27 -100 81 0
69 -107 108 -86 80 0
68 127 9 -108 0
-107 -60 -117 -58 0
-14 -38 9 83 124 0
-147 39 22 0
98 -63 107 -91 55 -60 0
87 54 132 51 -127 -59 0
-94 -19 -17 100 -20 -64 0
96 85 -147 39 -72 0
-49 -67 80 -82 128 0
109 69 0
-126 -82 116 0
60 12 72 -76 0
-38 -81 -49 26 16 69 0
-19 139 24 0
7 140 0
54 19 13 -10 0
-115 -62 -131 9 -59 0
-149 76 -33 0
-49 141 103 -32 -8 0
-116 -65 102 133 0
45 147 106 25 -55 0
-101 136 75 -139 0
79 -125 -47 0
13 83 111 0
-129 120 78 -111 148 134 0
-63 -105 0
74 142 132 0
65 86 0
145 9 -46 0
-45 -70 -146 33 99 58 0
5 127 -103 43 55 -37 0
-99 114 64 -43 0
-119 114 62 -96 -19 0
-101 68 0
97 -32 0
-14 144 -16 87 0
126 -148 7 -113 -38 0
-113 -100 -91 -94 -22 0
130 -131 -92 -6 -109 0
42 145 121 -95 -104 0
-143 39 23 0
54 -91 0
41 -139 -105 0
121 -131 -11 23 0
-17 21 35 0
-71 66 26 -58 133 0
-95 -88 -100 0
-77 81 64 -55 2 -33 0
107 114 142 0
-127 -53 0
150 0
